125 10
3
34 54 23 96 44 2 3 14 43 41 67 91 55 91 33 41 34 26 25 40 28 26 74 71 21 94 62 95 63 39 97 52 52 36 95 51 12 79 64 94 64 19 22 39 12 36 25 5 68 11 58 75 79 33 28 12 68 86 66 6 44 66 54 37 79 57 27 21 62 78 7 78 39 64 13 81 11 42 34 11 5 96 92 45 67 33 53 14 90 89 69 37 31 52 92 60 89 83 39 33 82 29 26 98 99 13 81 46 54 45 30 63 51 67 41 73 74 40 58 52 65 46 70 23 55
917 563 758 810 724 1033 967 673 761 893
93 0 0 0 0 0 0 0 0 0 0 0 0 0 0 0 0 0 0 60 0 0 0 0 58 28 0 0 0 0 0 0 0 0 0 0 12 0 0 0 42 0 0 0 0 0 69 0 44 0 99 43 0 0 45 0 70 0 0 0 0 8 0 0 0 0 0 0 72 0 0 0 84 0 0 0 0 0 0 0 0 0 0 0 0 0 0 97 0 0 0 0 82 0 0 0 0 0 0 0 0 0 0 0 0 74 0 0 85 0 0 0 0 0 0 57 0 0 0 0 0 84 0 0 0
0 0 0 0 0 22 0 0 0 0 0 0 73 0 0 21 0 41 0 0 0 0 0 0 0 0 0 0 0 60 0 0 0 0 0 0 0 0 0 0 0 0 9 0 0 0 0 0 0 0 0 0 0 19 0 0 62 0 0 9 0 0 0 0 0 0 0 0 0 76 0 82 0 0 0 0 0 0 0 0 0 0 61 0 0 0 0 0 0 0 0 0 0 0 0 32 0 0 0 0 0 0 0 99 0 0 0 0 0 0 0 0 0 0 0 0 15 0 0 0 0 0 0 0 23
0 0 0 0 0 21 0 0 0 0 0 0 0 0 0 0 0 0 32 0 0 0 0 0 0 0 0 0 0 0 20 0 0 0 0 0 0 0 0 0 0 41 75 0 0 0 0 0 0 0 0 0 0 42 0 41 94 0 0 0 97 0 3 0 0 0 0 0 0 0 0 0 0 0 45 0 0 0 0 0 0 0 0 0 84 0 0 0 0 0 0 54 0 0 0 0 0 57 0 8 49 6 91 0 0 0 0 0 75 0 64 0 0 0 3 0 0 0 0 0 0 0 0 62 16
0 0 5 0 0 0 0 0 0 0 0 0 0 0 46 0 0 0 88 0 0 0 0 0 69 0 0 0 0 0 0 0 0 0 97 0 0 37 0 71 0 0 0 0 39 70 0 0 0 0 0 0 0 10 26 53 0 0 0 0 31 0 0 0 0 93 0 38 0 0 0 15 0 0 0 0 0 0 0 0 0 0 8 0 71 0 0 0 37 0 0 1 0 42 0 0 0 0 0 0 0 0 0 0 21 96 0 18 86 0 0 0 0 0 0 0 0 0 0 0 0 0 0 0 0
0 0 0 0 0 0 0 0 0 0 0 0 0 0 0 0 0 39 0 0 0 0 0 0 0 0 36 0 40 0 0 0 0 0 0 0 0 0 0 0 0 0 0 0 0 87 0 0 0 83 0 84 0 0 0 0 34 0 0 0 0 0 0 0 0 0 0 0 0 0 0 0 0 0 0 21 84 0 0 0 0 0 0 0 69 0 0 0 0 48 0 0 18 0 0 31 0 0 0 0 48 0 36 66 0 99 0 0 0 0 0 0 0 0 0 74 0 0 0 0 0 61 0 0 0
0 0 0 0 0 0 0 0 0 35 0 0 0 0 68 0 13 0 42 0 0 0 0 0 0 66 0 0 0 0 0 0 0 53 0 96 0 0 0 0 0 75 0 0 0 0 0 0 2 0 48 0 0 0 0 0 95 0 0 0 0 0 0 0 0 0 0 0 0 0 0 0 0 0 57 0 0 0 98 84 0 0 0 74 40 0 29 0 0 0 0 75 0 28 0 0 0 0 0 0 0 0 0 0 0 0 96 0 0 0 83 0 0 93 0 25 0 0 78 0 6 0 0 0 0
0 0 0 0 0 78 0 0 87 0 0 0 0 0 0 50 0 0 0 0 0 0 0 0 0 0 0 0 0 92 0 0 0 0 59 0 0 0 68 2 0 0 13 0 0 26 1 0 0 0 0 0 0 0 0 0 0 0 62 0 25 0 46 0 0 0 0 0 21 0 84 0 0 0 32 0 0 0 0 49 0 0 0 0 0 63 0 40 0 0 0 0 0 0 61 0 0 0 0 0 0 0 32 0 24 37 0 0 0 0 0 0 0 0 99 44 0 0 0 0 83 0 0 0 90
0 0 1 54 0 0 0 0 0 0 88 0 0 0 0 0 0 0 19 0 13 36 0 0 0 0 0 0 0 26 0 0 10 0 0 0 0 0 0 0 0 0 0 0 0 0 0 0 0 0 0 0 0 0 0 0 0 0 79 0 73 0 0 0 8 0 0 0 0 7 0 0 0 0 0 0 0 0 0 42 57 0 0 0 85 0 0 0 0 0 0 0 74 0 23 0 0 62 0 0 0 0 0 0 66 0 0 0 0 3 0 0 0 0 0 0 0 0 0 0 0 0 0 0 36
0 0 0 0 0 0 0 0 0 0 0 0 0 0 62 0 0 0 0 1 0 0 0 0 0 0 0 0 0 0 32 0 0 0 0 0 0 0 7 0 0 0 0 0 98 0 0 75 78 51 0 0 65 0 44 0 0 0 0 0 0 0 0 18 66 0 0 0 43 0 0 0 0 0 59 0 0 0 0 0 88 57 0 0 0 0 0 0 0 0 0 0 0 41 0 0 0 0 0 0 0 0 0 0 0 0 9 83 0 0 0 0 0 32 0 0 0 0 0 0 0 0 69 0 0
98 0 0 0 0 0 38 0 0 0 95 54 0 0 78 0 0 0 0 40 0 0 0 0 0 81 0 0 0 0 0 0 37 0 0 0 0 0 0 0 0 0 0 80 0 0 0 0 0 45 0 6 7 0 0 0 8 53 98 0 0 0 0 14 0 0 0 0 29 0 69 0 29 0 63 0 0 0 0 0 0 0 0 0 0 0 0 0 0 0 0 0 0 0 0 87 21 0 0 0 0 0 92 0 0 0 0 0 0 0 0 0 0 0 32 0 0 0 0 0 0 0 0 0 0
82 0 0 0 0 0 0 0 0 0 0 0 0 0 0 0 0 0 0 41 0 0 0 0 35 16 0 0 0 0 0 0 0 0 0 0 4 0 0 0 29 0 0 0 0 0 48 0 39 0 17 24 0 0 32 0 33 0 0 0 0 4 0 0 0 0 0 0 20 0 0 0 1 0 0 0 0 0 0 0 0 0 0 0 0 0 0 45 0 0 0 0 32 0 0 0 0 0 0 0 0 0 0 0 0 71 0 0 71 0 0 0 0 0 0 9 0 0 0 0 0 3 0 0 0
0 0 0 0 0 15 0 0 0 0 0 0 70 0 0 5 0 4 0 0 0 0 0 0 0 0 0 0 0 23 0 0 0 0 0 0 0 0 0 0 0 0 2 0 0 0 0 0 0 0 0 0 0 15 0 0 46 0 0 0 0 0 0 0 0 0 0 0 0 16 0 42 0 0 0 0 0 0 0 0 0 0 10 0 0 0 0 0 0 0 0 0 0 0 0 25 0 0 0 0 0 0 0 93 0 0 0 0 0 0 0 0 0 0 0 0 5 0 0 0 0 0 0 0 22
0 0 0 0 0 14 0 0 0 0 0 0 0 0 0 0 0 0 27 0 0 0 0 0 0 0 0 0 0 0 10 0 0 0 0 0 0 0 0 0 0 14 6 0 0 0 0 0 0 0 0 0 0 2 0 33 64 0 0 0 51 0 0 0 0 0 0 0 0 0 0 0 0 0 38 0 0 0 0 0 0 0 0 0 68 0 0 0 0 0 0 24 0 0 0 0 0 15 0 0 26 4 40 0 0 0 0 0 40 0 35 0 0 0 1 0 0 0 0 0 0 0 0 7 12
0 0 2 0 0 0 0 0 0 0 0 0 0 0 37 0 0 0 13 0 0 0 0 0 53 0 0 0 0 0 0 0 0 0 33 0 0 23 0 44 0 0 0 0 7 41 0 0 0 0 0 0 0 8 25 44 0 0 0 0 29 0 0 0 0 65 0 21 0 0 0 14 0 0 0 0 0 0 0 0 0 0 1 0 10 0 0 0 28 0 0 0 0 31 0 0 0 0 0 0 0 0 0 0 0 24 0 6 48 0 0 0 0 0 0 0 0 0 0 0 0 0 0 0 0
0 0 0 0 0 0 0 0 0 0 0 0 0 0 0 0 0 3 0 0 0 0 0 0 0 0 28 0 20 0 0 0 0 0 0 0 0 0 0 0 0 0 0 0 0 47 0 0 0 3 0 2 0 0 0 0 21 0 0 0 0 0 0 0 0 0 0 0 0 0 0 0 0 0 0 4 45 0 0 0 0 0 0 0 34 0 0 0 0 0 0 0 1 0 0 8 0 0 0 0 27 0 10 63 0 44 0 0 0 0 0 0 0 0 0 32 0 0 0 0 0 45 0 0 0
0 0 0 0 0 0 0 0 0 5 0 0 0 0 37 0 6 0 6 0 0 0 0 0 0 33 0 0 0 0 0 0 0 31 0 54 0 0 0 0 0 10 0 0 0 0 0 0 1 0 8 0 0 0 0 0 83 0 0 0 0 0 0 0 0 0 0 0 0 0 0 0 0 0 33 0 0 0 44 80 0 0 0 52 11 0 6 0 0 0 0 2 0 5 0 0 0 0 0 0 0 0 0 0 0 0 65 0 0 0 81 0 0 54 0 9 0 0 39 0 4 0 0 0 0
0 0 0 0 0 46 0 0 29 0 0 0 0 0 0 9 0 0 0 0 0 0 0 0 0 0 0 0 0 66 0 0 0 0 40 0 0 0 20 1 0 0 8 0 0 8 0 0 0 0 0 0 0 0 0 0 0 0 42 0 21 0 25 0 0 0 0 0 10 0 65 0 0 0 22 0 0 0 0 41 0 0 0 0 0 48 0 19 0 0 0 0 0 0 49 0 0 0 0 0 0 0 7 0 1 28 0 0 0 0 0 0 0 0 10 42 0 0 0 0 79 0 0 0 53
0 0 0 35 0 0 0 0 0 0 76 0 0 0 0 0 0 0 12 0 8 4 0 0 0 0 0 0 0 13 0 0 5 0 0 0 0 0 0 0 0 0 0 0 0 0 0 0 0 0 0 0 0 0 0 0 0 0 72 0 40 0 0 0 0 0 0 0 0 2 0 0 0 0 0 0 0 0 0 18 27 0 0 0 60 0 0 0 0 0 0 0 72 0 7 0 0 32 0 0 0 0 0 0 32 0 0 0 0 1 0 0 0 0 0 0 0 0 0 0 0 0 0 0 2
0 0 0 0 0 0 0 0 0 0 0 0 0 0 38 0 0 0 0 0 0 0 0 0 0 0 0 0 0 0 12 0 0 0 0 0 0 0 6 0 0 0 0 0 0 0 0 38 71 44 0 0 47 0 20 0 0 0 0 0 0 0 0 3 24 0 0 0 13 0 0 0 0 0 25 0 0 0 0 0 49 56 0 0 0 0 0 0 0 0 0 0 0 11 0 0 0 0 0 0 0 0 0 0 0 0 3 46 0 0 0 0 0 13 0 0 0 0 0 0 0 0 8 0 0
80 0 0 0 0 0 24 0 0 0 9 12 0 0 33 0 0 0 0 7 0 0 0 0 0 17 0 0 0 0 0 0 34 0 0 0 0 0 0 0 0 0 0 63 0 0 0 0 0 8 0 0 5 0 0 0 7 32 77 0 0 0 0 7 0 0 0 0 27 0 24 0 12 0 9 0 0 0 0 0 0 0 0 0 0 0 0 0 0 0 0 0 0 0 0 64 9 0 0 0 0 0 71 0 0 0 0 0 0 0 0 0 0 0 4 0 0 0 0 0 0 0 0 0 0
